x04m01e2t1tp2
3134
3513
3513
3513
3513
3513
3513
3513
3537
3537
3537
3537
3537
3537
3537
3537
3537
3537
3568
3568
3568
3568
3568
3568
3568
3568
3568
3568
3568
3568
3568
3568
3568
3568
3568
3568
3568
3568
3568
3568
3568
3568
3568
3568
3568
3568
3568
3568
3568
3568
3568
3568
3568
3568
3568
3568
3568
3568
3568
3568
3568
3568
3568
3568
3568
3601
3601
3609
3730
3751
3751
3751
3751
3751
3751
3751
3751
3751
3751
3751
3751
3751
3751
3751
3751
3751
3751
3751
3751
3751
3751
3751
3751
3751
3751
3751
3751
3751
3751
3751
3751
3751
3751
3751
3751
3751
3751
3751
3751
3751
3751
3751
3751
3751
3751
3751
3751
3751
3751
3751
3751
3751
3751
3751
3751
3751
3751
3751
3751
3751
3751
3751
3838
3883
3883
3883
3972
3972
3972
3972
3972
3972
3972
3972
3972
3972
3972
3972
3972
3972
3972
3972
3972
3972
3972
3972
3972
3972
3972
3972
3972
3972
3972
3972
3972
3972
3972
3972
3972
3972
3972
3972
3972
3972
3972
3972
3972
3972
3972
3972
3972
3972
3972
3972
3972
3972
3972
3972
3972
3972
3972
3972
3972
3972
3972
3972
3972
3972
3972
3972
3972
3972
3972
3972
3972
3972
3972
3972
3972
3972
3972
3972
3972
3972
3972
3972
3972
3972
3972
3972
3972
3972
3972
3972
3972
3972
3972
3972
3972
3972
3972
3972
3972
3972
3972
3972
3972
3972
3972
3972
3972
3972
3972
3972
3972
3972
3972
3972
3972
3972
3972
3972
3972
3972
3972
3972
3972
3972
3972
3972
3972
3972
3972
3972
3972
3972
3972
3972
3972
3972
3972
3972
3972
3972
3972
3972
3972
3972
3972
3972
3972
3972
3972
3972
3972
3972
3972
3972
3972
3972
3972
3972
3972
3972
3972
3972
3972
3972
3972
3972
3972
3972
3972
3972
3972
3972
3972
3972
3972
3972
3972
3972
3972
3972
3972
3972
3972
3972
3972
3972
3972
3972
3972
3972
3972
3972
3972
3972
3972
3972
3972
3972
3972
3972
3972
3972
3972
3972
3972
3972
3972
3972
3972
3972
3972
3972
3972
3972
3972
3972
3972
3972
3972
3972
3972
3972
3972
3972
3972
3972
3972
3972
3972
3972
3972
3972
3972
3972
3972
3972
3972
3972
3972
3972
3972
3972
3972
3972
3972
3972
3972
3972
3972
3972
3972
3972
3972
3972
3972
3972
3972
3972
3972
3972
3972
3972
3972
3972
3972
3972
3972
3972
3972
3972
3972
3972
3972
3972
3972
3972
3972
3972
3972
3972
3972
3972
3972
3972
3972
3972
3984
3984
3984
3984
3984
3984
3984
3984
3984
3984
3984
3984
3984
3984
3984
3984
3984
3984
3984
3984
3984
3984
3984
3984
3984
3984
3984
3984
3984
3984
3984
3984
3984
3984
3984
3984
3984
3984
3984
3984
3984
3984
3984
3984
3984
3984
3984
3984
3984
3984
3984
3984
3984
3984
3984
3984
3984
4020
4020
4020
4020
4020
4020
4020
4020
4020
4020
4020
4020
4020
4020
4020
4020
4020
4020
4020
4020
4020
4020
4020
4020
4020
4020
4020
4020
4020
4020
4020
4020
4020
4020
4020
4020
4020
4020
4020
4020
4020
4020
4020
4020
4020
4020
4020
4020
4020
4020
4020
4020
4020
4020
4020
4020
4020
4020
4020
4020
4020
4020
4020
4020
4020
4020
4020
4020
4020
4020
4020
4020
4020
4020
4020
4020
4020
4020
4020
4020
4020
4020
4020
4020
4020
4020
4020
4020
4020
4020
4020
4020
4020
4020
4020
4020
4020
4020
4020
4020
4020
4020
4020
4020
4020
4020
4020
4020
4020
4020
4020
4020
4020
4020
4020
4020
4020
4020
4020
4020
4020
4020
4020
4020
4020
4020
4020
4020
4020
4020
4020
4020
4020
4020
4020
4020
4020
4020
4020
4020
4020
4020
4020
4020
4020
4020
4020
4020
4020
4020
4020
4020
4020
4020
4020
4020
4020
4020
4020
4020
4020
4020
4020
4020
4020
4020
4020
4020
4020
4020
4020
4020
4020
4020
4020
4020
4020
4020
4020
4020
4020
4020
4020
4020
4020
4020
4020
4020
4020
4020
4020
4020
4020
4020
4020
4020
4020
4020
4020
4020
4020
4020
4020
4020
4020
4020
4020
4020
4020
4020
4020
4020
4020
4020
4020
4020
4020
4020
4020
4020
4020
4020
4020
4020
4020
4020
4020
4020
4020
4020
4020
4020
4020
4020
4020
4020
4020
4020
4020
4020
4020
4020
4020
4020
4020
4020
4020
4020
4020
4020
4020
4020
4020
4020
4020
4020
4020
4020
4020
4020
4020
4020
4020
4020
4020
4020
4020
4020
4020
4020
4020
4020
4020
4020
4020
4020
4020
4020
4020
4020
4020
4020
4020
4020
4020
4020
4020
4020
4020
4020
4020
4020
4020
4020
4020
4020
4020
4020
4020
4020
4020
4020
4020
4020
4020
4020
4020
4020
4020
4020
4020
4020
4020
4020
4020
4020
4020
4020
4020
4020
4020
4020
4020
4020
4020
4020
4020
4020
4020
4020
4020
4020
4020
4020
4020
4020
4020
4020
4020
4020
4020
4020
4020
4020
4020
4020
4020
4020
4020
4020
4020
4020
4020
4020
4020
4020
4020
4020
4020
4020
4020
4020
4020
4020
4020
4020
4020
4020
4020
4020
4020
4020
4020
4020
4020
4020
4020
4020
4020
4020
4020
4020
4020
4020
4020
4020
4020
4020
4020
4020
4020
4020
4020
4020
4020
4020
4020
4020
4020
4020
4020
4020
4020
4020
4020
4020
4020
4020
4020
4020
4020
4020
4020
4020
4020
4020
4020
4020
4020
4020
4020
4020
4020
4020
4020
4020
4020
4020
4020
4020
4020
4020
4020
4020
4020
4020
4020
4020
4020
4020
4020
4020
4020
4020
4020
4020
4020
4020
4020
4020
4020
4020
4020
4020
4020
4020
4020
4020
4020
4020
4020
4020
4020
4020
4020
4020
4020
4020
4020
4020
4020
4020
4020
4020
4020
4020
4020
4020
4020
4020
4020
4020
4020
4020
4020
4020
4020
4020
4020
4020
4020
4020
4020
4020
4020
4020
4020
4020
4020
4020
4020
4020
4020
4020
4020
4020
4020
4020
4020
4020
4020
4020
4020
4020
4020
4020
4020
4020
4020
4020
4020
4020
4020
